Route #1: 25 53 6 24 41 45 42 47
Route #2: 21 26 4 39 37 15 29
Route #3: 7 46 28 40 5 12 51 44 14
Route #4: 8 17 9 38 50 22 23 10
Route #5: 19 18 43 2 34 30 54 31 20 55 11 33
Route #6: 3 13 49 32 36 48 35 16
Route #7: 1 52 27
Cost 763